row=9;
column=9;
Board=[|1,0,0,0,1,0,1,0,1|0,0,0,0,0,0,0,0,0|0,1,0,1,0,0,1,0,0|0,0,0,0,0,0,0,0,0|0,0,0,0,1,0,0,0,0|0,1,0,0,0,0,0,1,0|0,0,0,0,0,0,0,0,0|0,0,1,0,0,1,0,0,1|0,0,0,0,0,0,0,0,0|];
right = [0,4,0,3,0,1,2,0,3];
bottom = [1,2,1,1,2,1,2,1,2];
